\ Model P2E2_Debug
\ LP format - for model browsing. Use MPS format to capture full model detail.
Minimize
  a0 + a1 + a2 + a3 + a4 + a5 + a6 + a7 + a8 + a9 + a10 + a11 + a12 + a13
   + a14
Subject To
 rdr_0: a0 + a1 + a2 + a3 + a4 >= 1
 rdr_1: a0 + a1 + a2 + a3 + a4 >= 1
 rdr_2: a0 + a1 + a2 + a3 + a4 >= 1
 rdr_3: a0 + a1 + a2 + a3 + a4 >= 1
 rdr_5: a0 + a1 + a2 + a4 + a5 >= 1
 rdr_6: a0 + a1 + a2 + a4 + a5 >= 1
 rdr_7: a0 + a1 + a2 + a4 + a5 >= 1
 rdr_8: a0 + a1 + a2 + a4 + a5 >= 1
 rdr_10: a0 + a2 + a6 + a7 + a8 >= 1
 rdr_11: a0 + a2 + a6 + a7 + a8 >= 1
 rdr_12: a0 + a2 + a6 + a7 + a8 >= 1
 rdr_14: a0 + a2 + a6 + a7 + a8 >= 1
 rdr_15: a0 + a4 + a6 + a9 + a10 >= 1
 rdr_16: a0 + a4 + a6 + a9 + a10 >= 1
 rdr_17: a0 + a4 + a6 + a9 + a10 >= 1
 rdr_18: a0 + a4 + a6 + a9 + a10 >= 1
 rdr_20: a0 + a1 + a2 + a4 + a7 >= 1
 rdr_21: a0 + a1 + a2 + a4 + a7 >= 1
 rdr_22: a0 + a1 + a2 + a4 + a7 >= 1
 rdr_24: a0 + a1 + a2 + a4 + a7 >= 1
 rdr_25: a0 + a4 + a6 + a10 + a11 >= 1
 rdr_26: a0 + a4 + a6 + a10 + a11 >= 1
 rdr_27: a0 + a4 + a6 + a10 + a11 >= 1
 rdr_28: a0 + a4 + a6 + a10 + a11 >= 1
 rdr_30: a0 + a3 + a4 + a6 + a10 >= 1
 rdr_31: a0 + a3 + a4 + a6 + a10 >= 1
 rdr_32: a0 + a3 + a4 + a6 + a10 >= 1
 rdr_33: a0 + a3 + a4 + a6 + a10 >= 1
 rdr_35: a0 + a4 + a5 + a6 + a10 >= 1
 rdr_36: a0 + a4 + a5 + a6 + a10 >= 1
 rdr_37: a0 + a4 + a5 + a6 + a10 >= 1
 rdr_38: a0 + a4 + a5 + a6 + a10 >= 1
 rdr_40: a0 + a4 + a6 + a8 + a10 >= 1
 rdr_41: a0 + a4 + a6 + a8 + a10 >= 1
 rdr_42: a0 + a4 + a6 + a8 + a10 >= 1
 rdr_43: a0 + a4 + a6 + a8 + a10 >= 1
 rdr_45: a0 + a4 + a6 + a7 + a10 >= 1
 rdr_46: a0 + a4 + a6 + a7 + a10 >= 1
 rdr_47: a0 + a4 + a6 + a7 + a10 >= 1
 rdr_49: a0 + a4 + a6 + a7 + a10 >= 1
 rdr_50: a0 + a3 + a6 + a8 >= 1
 rdr_51: a0 + a3 + a6 + a8 >= 1
 rdr_52: a0 + a3 + a6 + a8 >= 1
 rdr_54: a0 + a6 + a12 + a13 >= 1
 rdr_55: a0 + a6 + a12 + a13 >= 1
 rdr_56: a0 + a6 + a12 + a13 >= 1
 rdr_58: a0 + a6 + a9 + a13 >= 1
 rdr_59: a0 + a6 + a9 + a13 >= 1
 rdr_60: a0 + a6 + a9 + a13 >= 1
 rdr_62: a0 + a1 + a2 + a13 >= 1
 rdr_63: a0 + a1 + a2 + a13 >= 1
 rdr_64: a0 + a1 + a2 + a13 >= 1
 rdr_66: a0 + a6 + a10 + a13 >= 1
 rdr_67: a0 + a6 + a10 + a13 >= 1
 rdr_68: a0 + a6 + a10 + a13 >= 1
 rdr_70: a0 + a4 + a10 + a13 >= 1
 rdr_71: a0 + a4 + a10 + a13 >= 1
 rdr_72: a0 + a4 + a10 + a13 >= 1
 rdr_74: a0 + a4 + a7 + a13 >= 1
 rdr_75: a0 + a4 + a7 + a13 >= 1
 rdr_77: a0 + a4 + a7 + a13 >= 1
 rdr_78: a0 + a1 + a2 + a4 + a14 >= 1
 rdr_79: a0 + a1 + a2 + a4 + a14 >= 1
 rdr_80: a0 + a1 + a2 + a4 + a14 >= 1
 rdr_81: a0 + a1 + a2 + a4 + a14 >= 1
 rdr_83: a0 + a6 + a7 + a8 + a14 >= 1
 rdr_84: a0 + a6 + a7 + a8 + a14 >= 1
 rdr_85: a0 + a6 + a7 + a8 + a14 >= 1
 rdr_87: a0 + a6 + a7 + a8 + a14 >= 1
 rdr_88: a0 + a4 + a6 + a10 + a14 >= 1
 rdr_89: a0 + a4 + a6 + a10 + a14 >= 1
 rdr_90: a0 + a4 + a6 + a10 + a14 >= 1
 rdr_91: a0 + a4 + a6 + a10 + a14 >= 1
 rdr_93: a0 + a1 + a2 + a3 + a4 >= 1
 rdr_94: a0 + a1 + a2 + a3 + a4 >= 1
 rdr_95: a0 + a1 + a2 + a3 + a4 >= 1
 rdr_96: a0 + a1 + a2 + a3 + a4 >= 1
 rdr_98: a0 + a1 + a2 + a4 + a5 >= 1
 rdr_99: a0 + a1 + a2 + a4 + a5 >= 1
 rdr_100: a0 + a1 + a2 + a4 + a5 >= 1
 rdr_101: a0 + a1 + a2 + a4 + a5 >= 1
 rdr_103: a0 + a1 + a2 + a4 + a7 >= 1
 rdr_104: a0 + a1 + a2 + a4 + a7 >= 1
 rdr_105: a0 + a1 + a2 + a4 + a7 >= 1
 rdr_107: a0 + a1 + a2 + a4 + a7 >= 1
 rdr_108: a0 + a1 + a2 + a13 >= 1
 rdr_109: a0 + a1 + a2 + a13 >= 1
 rdr_110: a0 + a1 + a2 + a13 >= 1
 rdr_112: a0 + a1 + a2 + a4 + a14 >= 1
 rdr_113: a0 + a1 + a2 + a4 + a14 >= 1
 rdr_114: a0 + a1 + a2 + a4 + a14 >= 1
 rdr_115: a0 + a1 + a2 + a4 + a14 >= 1
 rdr_117: a0 + a1 + a2 + a3 + a4 >= 1
 rdr_118: a0 + a1 + a2 + a3 + a4 >= 1
 rdr_119: a0 + a1 + a2 + a3 + a4 >= 1
 rdr_120: a0 + a1 + a2 + a3 + a4 >= 1
 rdr_122: a0 + a1 + a2 + a4 + a5 >= 1
 rdr_123: a0 + a1 + a2 + a4 + a5 >= 1
 rdr_124: a0 + a1 + a2 + a4 + a5 >= 1
 rdr_125: a0 + a1 + a2 + a4 + a5 >= 1
 rdr_127: a0 + a2 + a6 + a7 + a8 >= 1
 rdr_128: a0 + a2 + a6 + a7 + a8 >= 1
 rdr_129: a0 + a2 + a6 + a7 + a8 >= 1
 rdr_131: a0 + a2 + a6 + a7 + a8 >= 1
 rdr_132: a0 + a1 + a2 + a4 + a7 >= 1
 rdr_133: a0 + a1 + a2 + a4 + a7 >= 1
 rdr_134: a0 + a1 + a2 + a4 + a7 >= 1
 rdr_136: a0 + a1 + a2 + a4 + a7 >= 1
 rdr_137: a0 + a1 + a2 + a13 >= 1
 rdr_138: a0 + a1 + a2 + a13 >= 1
 rdr_139: a0 + a1 + a2 + a13 >= 1
 rdr_141: a0 + a1 + a2 + a4 + a14 >= 1
 rdr_142: a0 + a1 + a2 + a4 + a14 >= 1
 rdr_143: a0 + a1 + a2 + a4 + a14 >= 1
 rdr_144: a0 + a1 + a2 + a4 + a14 >= 1
 rdr_146: a0 + a1 + a2 + a3 + a4 >= 1
 rdr_147: a0 + a1 + a2 + a3 + a4 >= 1
 rdr_148: a0 + a1 + a2 + a3 + a4 >= 1
 rdr_149: a0 + a1 + a2 + a3 + a4 >= 1
 rdr_151: a0 + a3 + a4 + a6 + a10 >= 1
 rdr_152: a0 + a3 + a4 + a6 + a10 >= 1
 rdr_153: a0 + a3 + a4 + a6 + a10 >= 1
 rdr_154: a0 + a3 + a4 + a6 + a10 >= 1
 rdr_156: a0 + a3 + a6 + a8 >= 1
 rdr_157: a0 + a3 + a6 + a8 >= 1
 rdr_158: a0 + a3 + a6 + a8 >= 1
 rdr_160: a0 + a1 + a2 + a3 + a4 >= 1
 rdr_161: a0 + a1 + a2 + a3 + a4 >= 1
 rdr_162: a0 + a1 + a2 + a3 + a4 >= 1
 rdr_163: a0 + a1 + a2 + a3 + a4 >= 1
 rdr_165: a0 + a1 + a2 + a4 + a5 >= 1
 rdr_166: a0 + a1 + a2 + a4 + a5 >= 1
 rdr_167: a0 + a1 + a2 + a4 + a5 >= 1
 rdr_168: a0 + a1 + a2 + a4 + a5 >= 1
 rdr_170: a0 + a4 + a6 + a9 + a10 >= 1
 rdr_171: a0 + a4 + a6 + a9 + a10 >= 1
 rdr_172: a0 + a4 + a6 + a9 + a10 >= 1
 rdr_173: a0 + a4 + a6 + a9 + a10 >= 1
 rdr_175: a0 + a1 + a2 + a4 + a7 >= 1
 rdr_176: a0 + a1 + a2 + a4 + a7 >= 1
 rdr_177: a0 + a1 + a2 + a4 + a7 >= 1
 rdr_179: a0 + a1 + a2 + a4 + a7 >= 1
 rdr_180: a0 + a4 + a6 + a10 + a11 >= 1
 rdr_181: a0 + a4 + a6 + a10 + a11 >= 1
 rdr_182: a0 + a4 + a6 + a10 + a11 >= 1
 rdr_183: a0 + a4 + a6 + a10 + a11 >= 1
 rdr_185: a0 + a3 + a4 + a6 + a10 >= 1
 rdr_186: a0 + a3 + a4 + a6 + a10 >= 1
 rdr_187: a0 + a3 + a4 + a6 + a10 >= 1
 rdr_188: a0 + a3 + a4 + a6 + a10 >= 1
 rdr_190: a0 + a4 + a5 + a6 + a10 >= 1
 rdr_191: a0 + a4 + a5 + a6 + a10 >= 1
 rdr_192: a0 + a4 + a5 + a6 + a10 >= 1
 rdr_193: a0 + a4 + a5 + a6 + a10 >= 1
 rdr_195: a0 + a4 + a6 + a8 + a10 >= 1
 rdr_196: a0 + a4 + a6 + a8 + a10 >= 1
 rdr_197: a0 + a4 + a6 + a8 + a10 >= 1
 rdr_198: a0 + a4 + a6 + a8 + a10 >= 1
 rdr_200: a0 + a4 + a6 + a7 + a10 >= 1
 rdr_201: a0 + a4 + a6 + a7 + a10 >= 1
 rdr_202: a0 + a4 + a6 + a7 + a10 >= 1
 rdr_204: a0 + a4 + a6 + a7 + a10 >= 1
 rdr_205: a0 + a4 + a10 + a13 >= 1
 rdr_206: a0 + a4 + a10 + a13 >= 1
 rdr_207: a0 + a4 + a10 + a13 >= 1
 rdr_209: a0 + a4 + a7 + a13 >= 1
 rdr_210: a0 + a4 + a7 + a13 >= 1
 rdr_212: a0 + a4 + a7 + a13 >= 1
 rdr_213: a0 + a1 + a2 + a4 + a14 >= 1
 rdr_214: a0 + a1 + a2 + a4 + a14 >= 1
 rdr_215: a0 + a1 + a2 + a4 + a14 >= 1
 rdr_216: a0 + a1 + a2 + a4 + a14 >= 1
 rdr_218: a0 + a4 + a6 + a10 + a14 >= 1
 rdr_219: a0 + a4 + a6 + a10 + a14 >= 1
 rdr_220: a0 + a4 + a6 + a10 + a14 >= 1
 rdr_221: a0 + a4 + a6 + a10 + a14 >= 1
 rdr_223: a0 + a1 + a2 + a4 + a5 >= 1
 rdr_224: a0 + a1 + a2 + a4 + a5 >= 1
 rdr_225: a0 + a1 + a2 + a4 + a5 >= 1
 rdr_226: a0 + a1 + a2 + a4 + a5 >= 1
 rdr_228: a0 + a4 + a5 + a6 + a10 >= 1
 rdr_229: a0 + a4 + a5 + a6 + a10 >= 1
 rdr_230: a0 + a4 + a5 + a6 + a10 >= 1
 rdr_231: a0 + a4 + a5 + a6 + a10 >= 1
 rdr_233: a0 + a2 + a6 + a7 + a8 >= 1
 rdr_234: a0 + a2 + a6 + a7 + a8 >= 1
 rdr_235: a0 + a2 + a6 + a7 + a8 >= 1
 rdr_237: a0 + a2 + a6 + a7 + a8 >= 1
 rdr_238: a0 + a4 + a6 + a9 + a10 >= 1
 rdr_239: a0 + a4 + a6 + a9 + a10 >= 1
 rdr_240: a0 + a4 + a6 + a9 + a10 >= 1
 rdr_241: a0 + a4 + a6 + a9 + a10 >= 1
 rdr_243: a0 + a4 + a6 + a10 + a11 >= 1
 rdr_244: a0 + a4 + a6 + a10 + a11 >= 1
 rdr_245: a0 + a4 + a6 + a10 + a11 >= 1
 rdr_246: a0 + a4 + a6 + a10 + a11 >= 1
 rdr_248: a0 + a3 + a4 + a6 + a10 >= 1
 rdr_249: a0 + a3 + a4 + a6 + a10 >= 1
 rdr_250: a0 + a3 + a4 + a6 + a10 >= 1
 rdr_251: a0 + a3 + a4 + a6 + a10 >= 1
 rdr_253: a0 + a4 + a5 + a6 + a10 >= 1
 rdr_254: a0 + a4 + a5 + a6 + a10 >= 1
 rdr_255: a0 + a4 + a5 + a6 + a10 >= 1
 rdr_256: a0 + a4 + a5 + a6 + a10 >= 1
 rdr_258: a0 + a4 + a6 + a8 + a10 >= 1
 rdr_259: a0 + a4 + a6 + a8 + a10 >= 1
 rdr_260: a0 + a4 + a6 + a8 + a10 >= 1
 rdr_261: a0 + a4 + a6 + a8 + a10 >= 1
 rdr_263: a0 + a4 + a6 + a7 + a10 >= 1
 rdr_264: a0 + a4 + a6 + a7 + a10 >= 1
 rdr_265: a0 + a4 + a6 + a7 + a10 >= 1
 rdr_267: a0 + a4 + a6 + a7 + a10 >= 1
 rdr_268: a0 + a3 + a6 + a8 >= 1
 rdr_269: a0 + a3 + a6 + a8 >= 1
 rdr_270: a0 + a3 + a6 + a8 >= 1
 rdr_272: a0 + a6 + a12 + a13 >= 1
 rdr_273: a0 + a6 + a12 + a13 >= 1
 rdr_274: a0 + a6 + a12 + a13 >= 1
 rdr_276: a0 + a6 + a9 + a13 >= 1
 rdr_277: a0 + a6 + a9 + a13 >= 1
 rdr_278: a0 + a6 + a9 + a13 >= 1
 rdr_280: a0 + a6 + a10 + a13 >= 1
 rdr_281: a0 + a6 + a10 + a13 >= 1
 rdr_282: a0 + a6 + a10 + a13 >= 1
 rdr_284: a0 + a6 + a7 + a8 + a14 >= 1
 rdr_285: a0 + a6 + a7 + a8 + a14 >= 1
 rdr_286: a0 + a6 + a7 + a8 + a14 >= 1
 rdr_288: a0 + a6 + a7 + a8 + a14 >= 1
 rdr_289: a0 + a4 + a6 + a10 + a14 >= 1
 rdr_290: a0 + a4 + a6 + a10 + a14 >= 1
 rdr_291: a0 + a4 + a6 + a10 + a14 >= 1
 rdr_292: a0 + a4 + a6 + a10 + a14 >= 1
 rdr_294: a0 + a2 + a6 + a7 + a8 >= 1
 rdr_295: a0 + a2 + a6 + a7 + a8 >= 1
 rdr_296: a0 + a2 + a6 + a7 + a8 >= 1
 rdr_298: a0 + a2 + a6 + a7 + a8 >= 1
 rdr_299: a0 + a1 + a2 + a4 + a7 >= 1
 rdr_300: a0 + a1 + a2 + a4 + a7 >= 1
 rdr_301: a0 + a1 + a2 + a4 + a7 >= 1
 rdr_303: a0 + a1 + a2 + a4 + a7 >= 1
 rdr_304: a0 + a4 + a6 + a7 + a10 >= 1
 rdr_305: a0 + a4 + a6 + a7 + a10 >= 1
 rdr_306: a0 + a4 + a6 + a7 + a10 >= 1
 rdr_308: a0 + a4 + a6 + a7 + a10 >= 1
 rdr_309: a0 + a4 + a7 + a13 >= 1
 rdr_310: a0 + a4 + a7 + a13 >= 1
 rdr_312: a0 + a4 + a7 + a13 >= 1
 rdr_313: a0 + a6 + a7 + a8 + a14 >= 1
 rdr_314: a0 + a6 + a7 + a8 + a14 >= 1
 rdr_315: a0 + a6 + a7 + a8 + a14 >= 1
 rdr_317: a0 + a6 + a7 + a8 + a14 >= 1
 rdr_318: a0 + a2 + a6 + a7 + a8 >= 1
 rdr_319: a0 + a2 + a6 + a7 + a8 >= 1
 rdr_320: a0 + a2 + a6 + a7 + a8 >= 1
 rdr_322: a0 + a2 + a6 + a7 + a8 >= 1
 rdr_323: a0 + a4 + a6 + a8 + a10 >= 1
 rdr_324: a0 + a4 + a6 + a8 + a10 >= 1
 rdr_325: a0 + a4 + a6 + a8 + a10 >= 1
 rdr_326: a0 + a4 + a6 + a8 + a10 >= 1
 rdr_328: a0 + a3 + a6 + a8 >= 1
 rdr_329: a0 + a3 + a6 + a8 >= 1
 rdr_330: a0 + a3 + a6 + a8 >= 1
 rdr_332: a0 + a6 + a7 + a8 + a14 >= 1
 rdr_333: a0 + a6 + a7 + a8 + a14 >= 1
 rdr_334: a0 + a6 + a7 + a8 + a14 >= 1
 rdr_336: a0 + a6 + a7 + a8 + a14 >= 1
 rdr_337: a0 + a4 + a6 + a9 + a10 >= 1
 rdr_338: a0 + a4 + a6 + a9 + a10 >= 1
 rdr_339: a0 + a4 + a6 + a9 + a10 >= 1
 rdr_340: a0 + a4 + a6 + a9 + a10 >= 1
 rdr_342: a0 + a6 + a9 + a13 >= 1
 rdr_343: a0 + a6 + a9 + a13 >= 1
 rdr_344: a0 + a6 + a9 + a13 >= 1
 rdr_346: a0 + a4 + a6 + a9 + a10 >= 1
 rdr_347: a0 + a4 + a6 + a9 + a10 >= 1
 rdr_348: a0 + a4 + a6 + a9 + a10 >= 1
 rdr_349: a0 + a4 + a6 + a9 + a10 >= 1
 rdr_351: a0 + a4 + a6 + a10 + a11 >= 1
 rdr_352: a0 + a4 + a6 + a10 + a11 >= 1
 rdr_353: a0 + a4 + a6 + a10 + a11 >= 1
 rdr_354: a0 + a4 + a6 + a10 + a11 >= 1
 rdr_356: a0 + a3 + a4 + a6 + a10 >= 1
 rdr_357: a0 + a3 + a4 + a6 + a10 >= 1
 rdr_358: a0 + a3 + a4 + a6 + a10 >= 1
 rdr_359: a0 + a3 + a4 + a6 + a10 >= 1
 rdr_361: a0 + a4 + a5 + a6 + a10 >= 1
 rdr_362: a0 + a4 + a5 + a6 + a10 >= 1
 rdr_363: a0 + a4 + a5 + a6 + a10 >= 1
 rdr_364: a0 + a4 + a5 + a6 + a10 >= 1
 rdr_366: a0 + a4 + a6 + a8 + a10 >= 1
 rdr_367: a0 + a4 + a6 + a8 + a10 >= 1
 rdr_368: a0 + a4 + a6 + a8 + a10 >= 1
 rdr_369: a0 + a4 + a6 + a8 + a10 >= 1
 rdr_371: a0 + a4 + a6 + a7 + a10 >= 1
 rdr_372: a0 + a4 + a6 + a7 + a10 >= 1
 rdr_373: a0 + a4 + a6 + a7 + a10 >= 1
 rdr_375: a0 + a4 + a6 + a7 + a10 >= 1
 rdr_376: a0 + a6 + a10 + a13 >= 1
 rdr_377: a0 + a6 + a10 + a13 >= 1
 rdr_378: a0 + a6 + a10 + a13 >= 1
 rdr_380: a0 + a4 + a10 + a13 >= 1
 rdr_381: a0 + a4 + a10 + a13 >= 1
 rdr_382: a0 + a4 + a10 + a13 >= 1
 rdr_384: a0 + a4 + a6 + a10 + a14 >= 1
 rdr_385: a0 + a4 + a6 + a10 + a14 >= 1
 rdr_386: a0 + a4 + a6 + a10 + a14 >= 1
 rdr_387: a0 + a4 + a6 + a10 + a14 >= 1
 rdr_389: a0 + a4 + a6 + a10 + a11 >= 1
 rdr_390: a0 + a4 + a6 + a10 + a11 >= 1
 rdr_391: a0 + a4 + a6 + a10 + a11 >= 1
 rdr_392: a0 + a4 + a6 + a10 + a11 >= 1
 rdr_394: a0 + a6 + a12 + a13 >= 1
 rdr_395: a0 + a6 + a12 + a13 >= 1
 rdr_396: a0 + a6 + a12 + a13 >= 1
 rdr_398: a0 + a6 + a12 + a13 >= 1
 rdr_399: a0 + a6 + a12 + a13 >= 1
 rdr_400: a0 + a6 + a12 + a13 >= 1
 rdr_402: a0 + a6 + a9 + a13 >= 1
 rdr_403: a0 + a6 + a9 + a13 >= 1
 rdr_404: a0 + a6 + a9 + a13 >= 1
 rdr_406: a0 + a1 + a2 + a13 >= 1
 rdr_407: a0 + a1 + a2 + a13 >= 1
 rdr_408: a0 + a1 + a2 + a13 >= 1
 rdr_410: a0 + a6 + a10 + a13 >= 1
 rdr_411: a0 + a6 + a10 + a13 >= 1
 rdr_412: a0 + a6 + a10 + a13 >= 1
 rdr_414: a0 + a4 + a10 + a13 >= 1
 rdr_415: a0 + a4 + a10 + a13 >= 1
 rdr_416: a0 + a4 + a10 + a13 >= 1
 rdr_418: a0 + a4 + a7 + a13 >= 1
 rdr_419: a0 + a4 + a7 + a13 >= 1
 rdr_421: a0 + a4 + a7 + a13 >= 1
 rdr_422: a0 + a1 + a2 + a4 + a14 >= 1
 rdr_423: a0 + a1 + a2 + a4 + a14 >= 1
 rdr_424: a0 + a1 + a2 + a4 + a14 >= 1
 rdr_425: a0 + a1 + a2 + a4 + a14 >= 1
 rdr_427: a0 + a6 + a7 + a8 + a14 >= 1
 rdr_428: a0 + a6 + a7 + a8 + a14 >= 1
 rdr_429: a0 + a6 + a7 + a8 + a14 >= 1
 rdr_431: a0 + a6 + a7 + a8 + a14 >= 1
 rdr_432: a0 + a4 + a6 + a10 + a14 >= 1
 rdr_433: a0 + a4 + a6 + a10 + a14 >= 1
 rdr_434: a0 + a4 + a6 + a10 + a14 >= 1
 rdr_435: a0 + a4 + a6 + a10 + a14 >= 1
Bounds
 a0 = 1
Binaries
 a0 a1 a2 a3 a4 a5 a6 a7 a8 a9 a10 a11 a12 a13 a14
End
